Problem:    
Rows:       68
Columns:    29 (20 integer, 20 binary)
Non-zeros:  206
Status:     INTEGER OPTIMAL
Objective:  value = 21.216698 (MINimum)

   No.   Row name        Activity     Lower bound   Upper bound
------ ------------    ------------- ------------- -------------
     1 r.5                   1021.22             0               
     2 r.6                  -978.783      -993.647               
     3 r.7                   21.2167             0               
     4 r.8                   21.2167      -995.282               
     5 r.9                   1021.22             0               
     6 r.10                 -985.136      -999.682               
     7 r.11                  21.2167             0               
     8 r.12                  21.2167      -999.187               
     9 r.13                  21.2167             0               
    10 r.14                  21.2167      -966.441               
    11 r.15                  1021.22             0               
    12 r.16                 -978.783      -978.845               
    13 r.17                  1021.22             0               
    14 r.18                 -999.938      -999.938               
    15 r.19                  21.2167             0               
    16 r.20                  0.06206      -999.443               
    17 r.21                        1             1             = 
    18 r.22                        1             1             = 
    19 r.23                        1             1             = 
    20 r.24                        1             1             = 
    21 r.25                        2             2               
    22 r.26                       -2         -1001               
    23 r.27                 -6.35259      -999.682               
    24 r.28                     1000             2               
    25 r.29                    -1000         -1001               
    26 r.30                     2000      -999.187               
    27 r.31                     1001             2               
    28 r.32                    -1001         -1001               
    29 r.33                     2000      -966.441               
    30 r.34                     1001             2               
    31 r.35                    -1001         -1001               
    32 r.36                     2000      -978.845               
    33 r.37                 -978.845      -993.647               
    34 r.38                  21.1546      -995.282               
    35 r.39                 -978.845      -993.647               
    36 r.40                  21.1546      -995.282               
    37 r.41                        2             2               
    38 r.42                       -2         -1001               
    39 r.43                  6.35259       6.35259               
    40 r.44                     1000             2               
    41 r.45                    -1000         -1001               
    42 r.46                     2000       4.71835               
    43 r.47                     1001             2               
    44 r.48                    -1001         -1001               
    45 r.49                  2006.35      -966.441               
    46 r.50                     1001             2               
    47 r.51                    -1001         -1001               
    48 r.52                     2000      -978.845               
    49 r.53                 -985.198      -999.682               
    50 r.54                  21.1546      -999.187               
    51 r.55                 -985.198      -999.682               
    52 r.56                  21.1546      -999.187               
    53 r.57                     1001             2               
    54 r.58                    -1001         -1001               
    55 r.59                     2000       6.35259               
    56 r.60                     1001             2               
    57 r.61                    -1001         -1001               
    58 r.62                     2000       4.71835               
    59 r.63                     1001             2               
    60 r.64                    -1001         -1001               
    61 r.65                  1993.65      0.318111               
    62 r.66                     1001             2               
    63 r.67                    -1001         -1001               
    64 r.68                     2000       0.81282               
    65 r.69                  21.1546      -966.441               
    66 r.70                 -978.845      -978.845               
    67 r.71                  21.1546      -966.441               
    68 r.72                 -978.845      -978.845               

   No. Column name       Activity     Lower bound   Upper bound
------ ------------    ------------- ------------- -------------
     1 tt                    21.2167             0               
     2 s_1_1        *              1             0             1 
     3 t_1_1                       0             0               
     4 s_2_1        *              0             0             1 
     5 t_2_1                       0             0               
     6 s_1_2        *              1             0             1 
     7 t_1_2                 6.35259             0               
     8 s_2_2        *              0             0             1 
     9 t_2_2                       0             0               
    10 s_1_3        *              0             0             1 
    11 t_1_3                       0             0               
    12 s_2_3        *              1             0             1 
    13 t_2_3                       0             0               
    14 s_1_4        *              1             0             1 
    15 t_1_4                 21.1546             0               
    16 s_2_4        *              0             0             1 
    17 t_2_4                 21.1546             0               
    18 r_1_1_2      *              0             0             1 
    19 u_1_1_2      *              0             0             1 
    20 r_2_1_2      *              1             0             1 
    21 u_2_1_2      *              0             0             1 
    22 r_1_1_3      *              1             0             1 
    23 u_1_1_3      *              0             0             1 
    24 r_2_1_3      *              1             0             1 
    25 u_2_1_3      *              0             0             1 
    26 r_1_2_3      *              1             0             1 
    27 u_1_2_3      *              0             0             1 
    28 r_2_2_3      *              1             0             1 
    29 u_2_2_3      *              0             0             1 

Integer feasibility conditions:

KKT.PE: max.abs.err = 0.00e+00 on row 0
        max.rel.err = 0.00e+00 on row 0
        High quality

KKT.PB: max.abs.err = 0.00e+00 on row 0
        max.rel.err = 0.00e+00 on row 0
        High quality

End of output
